words_hard_train/4117.qaiger
aag 77 16 0 1 61
2
4
8
12
16
20
42
56
64
66
86
94
98
110
114
134
154
6 2 4
10 6 8
14 10 13
18 14 17
22 19 21
24 18 20
26 23 25
28 11 12
30 29 15
32 15 16
34 33 19
36 30 34
38 36 21
40 27 39
44 25 43
46 24 42
48 45 47
50 40 49
52 41 48
54 51 53
58 55 57
60 54 56
62 59 61
68 64 66
70 65 67
72 69 71
74 53 47
76 73 74
78 72 75
80 77 79
82 26 37
84 83 39
88 85 86
90 84 87
92 89 91
96 30 94
100 34 99
102 35 98
104 101 103
106 31 105
108 97 107
112 111 2
116 5 115
118 4 114
120 117 119
122 112 120
124 110 3
126 121 124
128 123 127
130 7 9
132 131 11
136 133 134
138 132 135
140 137 139
142 129 140
144 104 95
146 142 145
148 108 146
150 92 148
152 80 150
154 63 152
i0 2 y2[0]
i1 2 y2[1]
i2 2 y2[2]
i3 2 y2[3]
i4 2 y2[4]
i5 2 y2[5]
i6 2 y2[6]
i7 1 x1[6]
i8 2 y2[7]
i9 1 x1[7]
i10 1 x1[5]
i11 1 x1[3]
i12 1 x1[4]
i13 1 x1[0]
i14 1 x1[1]
i15 1 x1[2]
o0 bool[0]
c
simplified
  ==
    1 x1
    subtract
      << 2
        202
      xor
        2 y2
        -153
