words_hard_train/4117.qaiger.qdimacs
p cnf 77 184
a 33 67 43 47 49 55 57 28 0
e 1 2 3 4 5 6 7 8 9 10 11 12 13 14 15 16 17 18 19 20 21 22 23 24 25 26 27 29 30 31 32 34 35 36 37 38 39 40 41 42 44 45 46 48 50 51 52 53 54 56 58 59 60 61 62 63 64 65 66 68 69 70 71 72 73 74 75 76 77 0
-1 -2 3 0
1 -3 0
2 -3 0
-3 -4 5 0
3 -5 0
4 -5 0
-5 6 7 0
5 -7 0
-6 -7 0
-7 8 9 0
7 -9 0
-8 -9 0
9 10 11 0
-9 -11 0
-10 -11 0
-9 -10 12 0
9 -12 0
10 -12 0
11 12 13 0
-11 -13 0
-12 -13 0
5 -6 14 0
-5 -14 0
6 -14 0
14 7 15 0
-14 -15 0
-7 -15 0
7 -8 16 0
-7 -16 0
8 -16 0
16 9 17 0
-16 -17 0
-9 -17 0
-15 -17 18 0
15 -18 0
17 -18 0
-18 10 19 0
18 -19 0
-10 -19 0
13 19 20 0
-13 -20 0
-19 -20 0
12 21 22 0
-12 -22 0
-21 -22 0
-12 -21 23 0
12 -23 0
21 -23 0
22 23 24 0
-22 -24 0
-23 -24 0
-20 24 25 0
20 -25 0
-24 -25 0
20 -24 26 0
-20 -26 0
24 -26 0
25 26 27 0
-25 -27 0
-26 -27 0
27 28 29 0
-27 -29 0
-28 -29 0
-27 -28 30 0
27 -30 0
28 -30 0
29 30 31 0
-29 -31 0
-30 -31 0
-32 -33 34 0
32 -34 0
33 -34 0
32 33 35 0
-32 -35 0
-33 -35 0
34 35 36 0
-34 -36 0
-35 -36 0
26 23 37 0
-26 -37 0
-23 -37 0
36 -37 38 0
-36 -38 0
37 -38 0
-36 37 39 0
36 -39 0
-37 -39 0
38 39 40 0
-38 -40 0
-39 -40 0
-13 18 41 0
13 -41 0
-18 -41 0
41 19 42 0
-41 -42 0
-19 -42 0
42 -43 44 0
-42 -44 0
43 -44 0
-42 43 45 0
42 -45 0
-43 -45 0
44 45 46 0
-44 -46 0
-45 -46 0
-15 -47 48 0
15 -48 0
47 -48 0
-17 49 50 0
17 -50 0
-49 -50 0
17 -49 51 0
-17 -51 0
49 -51 0
50 51 52 0
-50 -52 0
-51 -52 0
15 52 53 0
-15 -53 0
-52 -53 0
48 53 54 0
-48 -54 0
-53 -54 0
55 -1 56 0
-55 -56 0
1 -56 0
2 57 58 0
-2 -58 0
-57 -58 0
-2 -57 59 0
2 -59 0
57 -59 0
58 59 60 0
-58 -60 0
-59 -60 0
-56 -60 61 0
56 -61 0
60 -61 0
-55 1 62 0
55 -62 0
-1 -62 0
60 -62 63 0
-60 -63 0
62 -63 0
61 63 64 0
-61 -64 0
-63 -64 0
3 4 65 0
-3 -65 0
-4 -65 0
65 5 66 0
-65 -66 0
-5 -66 0
66 -67 68 0
-66 -68 0
67 -68 0
-66 67 69 0
66 -69 0
-67 -69 0
68 69 70 0
-68 -70 0
-69 -70 0
64 -70 71 0
-64 -71 0
70 -71 0
-52 47 72 0
52 -72 0
-47 -72 0
-71 72 73 0
71 -73 0
-72 -73 0
-54 -73 74 0
54 -74 0
73 -74 0
-46 -74 75 0
46 -75 0
74 -75 0
-40 -75 76 0
40 -76 0
75 -76 0
31 -76 77 0
-31 -77 0
76 -77 0
77 0
